\ Model prob_19
\ LP format - for model browsing. Use MPS format to capture full model detail.
Minimize
  5 Chicken + 9 Cheese + 2 Rice + Beans
Subject To
 R0: 16 Chicken + 10 Cheese + 12 Rice + 13 Beans >= 94
 R1: 22 Chicken + 4 Cheese + 21 Rice + 14 Beans >= 191
 R2: 292 Chicken + 82 Cheese + 207 Rice + 81 Beans >= 2271
Bounds
Generals
 Chicken Cheese Rice Beans
End
